p cnf 116 391
c t mc
-3 1 0
-3 -2 0
-1 2 3 0
6 4 0
6 -5 0
-4 5 -6 0
-7 3 0
-7 6 0
-3 -6 7 0
-7 8 -9 0
7 -8 -9 0
-7 -8 9 0
7 8 9 0
-11 -10 0
-11 -2 0
10 2 11 0
13 -12 0
13 -12 0
12 -13 0
-14 13 0
-14 12 0
-13 -12 14 0
11 -14 -15 0
-11 14 -15 0
11 14 15 0
-11 -14 15 0
16 9 0
16 15 0
-9 -15 -16 0
18 12 0
18 17 0
-12 -17 -18 0
-12 -10 -19 0
12 10 -19 0
-12 10 19 0
12 -10 19 0
-20 18 0
-20 -19 0
-18 19 20 0
-22 21 0
-22 -4 0
-21 4 22 0
23 22 0
23 1 0
-22 -1 -23 0
-25 3 0
-25 -24 0
-3 24 25 0
18 -26 -27 0
-18 26 -27 0
18 26 27 0
-18 -26 27 0
4 24 -28 0
-4 -24 -28 0
4 -24 28 0
-4 24 28 0
-29 27 0
-29 28 0
-27 -28 29 0
-30 -10 -31 0
30 10 -31 0
-30 10 31 0
30 -10 31 0
-26 27 -32 0
26 -27 -32 0
-26 -27 32 0
26 27 32 0
-33 31 0
-33 32 0
-31 -32 33 0
-29 33 -34 0
29 -33 -34 0
-29 -33 34 0
29 33 34 0
-25 34 -35 0
25 -34 -35 0
-25 -34 35 0
25 34 35 0
36 23 0
36 -35 0
-23 35 -36 0
36 37 -38 0
-36 -37 -38 0
36 -37 38 0
-36 37 38 0
13 2 -39 0
-13 -2 -39 0
13 -2 39 0
-13 2 39 0
-41 40 0
-41 17 0
-40 -17 41 0
42 24 0
42 41 0
-24 -41 -42 0
7 -42 -43 0
-7 42 -43 0
7 42 43 0
-7 -42 43 0
39 -43 -44 0
-39 43 -44 0
39 43 44 0
-39 -43 44 0
38 -44 -45 0
-38 44 -45 0
38 44 45 0
-38 -44 45 0
-47 -28 0
-47 46 0
28 -46 47 0
-47 -2 -48 0
47 2 -48 0
-47 2 48 0
47 -2 48 0
-45 48 -49 0
45 -48 -49 0
-45 -48 49 0
45 48 49 0
51 7 0
51 -26 0
-7 26 -51 0
-52 -51 0
-52 -12 0
51 12 52 0
-53 -50 0
-53 -52 0
50 52 53 0
53 25 -54 0
-53 -25 -54 0
53 -25 54 0
-53 25 54 0
1 -13 -55 0
-1 13 -55 0
1 13 55 0
-1 -13 55 0
54 55 -56 0
-54 -55 -56 0
54 -55 56 0
-54 55 56 0
-57 4 0
-57 22 0
-4 -22 57 0
-17 26 -59 0
17 -26 -59 0
-17 -26 59 0
17 26 59 0
-60 -58 0
-60 -59 0
58 59 60 0
61 -57 0
61 60 0
57 -60 -61 0
29 -61 -62 0
-29 61 -62 0
29 61 62 0
-29 -61 62 0
-63 -26 0
-63 -3 0
26 3 63 0
-62 -63 -64 0
62 63 -64 0
-62 63 64 0
62 -63 64 0
-22 -63 -65 0
22 63 -65 0
-22 63 65 0
22 -63 65 0
35 -66 -67 0
-35 66 -67 0
35 66 67 0
-35 -66 67 0
68 67 0
68 18 0
-67 -18 -68 0
-47 -68 -69 0
47 68 -69 0
-47 68 69 0
47 -68 69 0
70 65 0
70 69 0
-65 -69 -70 0
-71 64 0
-71 70 0
-64 -70 71 0
72 -56 0
72 -71 0
56 71 -72 0
-46 73 -74 0
46 -73 -74 0
-46 -73 74 0
46 73 74 0
4 -58 -75 0
-4 58 -75 0
4 58 75 0
-4 -58 75 0
74 75 -76 0
-74 -75 -76 0
74 -75 76 0
-74 75 76 0
77 72 0
77 -76 0
-72 76 -77 0
78 49 0
78 77 0
-49 -77 -78 0
-59 -41 -79 0
59 41 -79 0
-59 41 79 0
59 -41 79 0
-80 68 0
-80 -79 0
-68 79 80 0
-78 80 -81 0
78 -80 -81 0
-78 -80 81 0
78 80 81 0
82 -20 0
82 -81 0
20 81 -82 0
-83 -16 0
-83 -82 0
16 82 83 0
84 12 0
84 5 0
-12 -5 -84 0
-86 85 0
-86 -50 0
-85 50 86 0
-87 84 0
-87 86 0
-84 -86 87 0
88 63 0
88 18 0
-63 -18 -88 0
4 66 -89 0
-4 -66 -89 0
4 -66 89 0
-4 66 89 0
-90 -41 0
-90 43 0
41 -43 90 0
-89 90 -91 0
89 -90 -91 0
-89 -90 91 0
89 90 91 0
-40 -10 -92 0
40 10 -92 0
-40 10 92 0
40 -10 92 0
-17 22 -93 0
17 -22 -93 0
-17 -22 93 0
17 22 93 0
-94 92 0
-94 -93 0
-92 93 94 0
95 -91 0
95 94 0
91 -94 -95 0
-96 -88 0
-96 95 0
88 -95 96 0
-97 87 0
-97 96 0
-87 -96 97 0
-5 13 -98 0
5 -13 -98 0
-5 -13 98 0
5 13 98 0
99 -98 0
99 -32 0
98 32 -99 0
52 27 -100 0
-52 -27 -100 0
52 -27 100 0
-52 27 100 0
-101 99 0
-101 -100 0
-99 100 101 0
-102 21 0
-102 -21 0
-103 102 0
-103 39 0
-102 -39 103 0
-104 -103 0
-104 -58 0
103 58 104 0
105 -2 0
105 104 0
2 -104 -105 0
106 -30 0
106 47 0
30 -47 -106 0
-107 105 0
-107 106 0
-105 -106 107 0
-6 -7 -108 0
6 7 -108 0
-6 7 108 0
6 -7 108 0
109 108 0
109 -92 0
-108 92 -109 0
-110 -4 0
-110 -30 0
4 30 110 0
111 110 0
111 39 0
-110 -39 -111 0
112 -109 0
112 111 0
109 -111 -112 0
113 107 0
113 112 0
-107 -112 -113 0
101 -113 -114 0
-101 113 -114 0
101 113 114 0
-101 -113 114 0
115 -97 0
115 -114 0
97 114 -115 0
-116 -83 0
-116 115 0
83 -115 116 0
80 50 -30 14 -97 -11 74 99 111 -89 0
-4 95 0
116 16 72 39 3 -47 -62 -99 0
-11 10 104 0
-79 -53 22 -32 0
-33 9 63 -102 -28 -36 0
-97 -41 46 0
109 105 108 110 39 -6 -113 -74 63 -33 0
67 94 17 -111 51 54 0
54 -36 0
6 -104 -34 0
38 -113 -68 -108 -39 12 -1 48 0
58 67 -1 37 0
2 19 -75 -100 -30 41 -31 0
77 -36 0
33 -13 -29 116 -26 67 73 81 0
-35 8 89 70 -32 61 -111 110 -77 0
-27 57 -61 19 0
95 -99 70 96 -88 -50 0
31 -29 0
89 -1 -74 -92 21 54 23 14 -16 0
84 -111 64 -91 -101 0
108 -15 -40 -104 -92 83 0
109 -10 110 -31 -53 0
21 94 -11 0
-41 -83 -112 -37 4 0
-77 -93 50 23 94 -15 0
68 -62 95 39 -109 -26 0
92 -71 51 0
2 62 -6 55 72 111 31 0
24 110 0
19 -22 -82 0
53 -26 14 75 108 -25 0
16 -114 -104 -37 -93 -60 -3 40 0
-20 -97 -101 -63 102 49 -95 103 -89 -44 0
106 -15 47 -57 110 0
78 -77 13 52 102 -75 -116 7 8 0
87 88 109 -20 -107 -13 -111 51 0
-81 78 -6 17 -52 113 -79 -67 -62 -115 0
-39 -60 -71 -76 -12 -38 10 65 -111 -27 0
84 -38 83 0
56 51 -88 0
-101 44 20 -108 22 100 1 0
71 -51 -65 0
-59 48 -78 92 -57 52 -87 -39 -19 0
72 27 0
95 103 -22 -91 72 0
-67 -33 -23 61 -12 97 71 -84 0
-16 101 44 0
27 38 -81 111 -109 -79 24 -8 0
-109 10 -98 -95 111 91 0
51 -85 -109 -92 -94 -33 17 -56 25 0
73 96 13 -82 -95 47 -92 0
-88 -102 -111 -66 0
80 -33 -88 -69 45 47 52 -36 -97 0
-5 -19 -77 -82 -9 -111 65 58 -53 -102 0
54 -40 -106 0
-75 -40 73 106 -21 99 -84 115 110 44 0
-116 20 -1 -92 106 -21 -87 0
-85 -24 -16 -66 94 77 -106 54 0
36 -24 35 -50 115 99 53 -34 76 0
43 72 -42 25 0
-73 -93 111 13 0
-3 -18 115 105 -64 -47 0
-82 8 64 -56 0
116 0
